001 001 001 000 001 001 001 002 001 001 001 002 001 002 001 000 001 003 005 007 007 006 005 006 004 004 012 009 010 010 009
002 001 001 000 001 001 001 001 000 001 001 001 000 001 001 001 001 002 002 003 005 010 006 009 006 006 007 006 009 009 006
002 001 000 000 000 000 000 001 001 002 001 000 001 000 001 001 002 002 002 004 005 008 010 010 007 006 006 005 006 005 006
001 002 001 000 000 000 001 001 002 002 001 001 001 001 001 001 002 002 002 004 005 007 008 011 009 006 004 003 004 005 006
002 001 001 000 000 000 001 001 002 001 000 001 001 001 002 001 003 003 003 005 006 008 009 010 007 005 003 003 004 006 008
002 002 001 001 001 001 001 001 002 001 001 001 001 002 002 002 003 005 005 010 007 004 008 010 003 003 003 003 005 008 008
001 001 001 001 001 001 001 002 001 000 000 001 002 004 003 003 003 004 006 012 010 009 010 011 005 003 002 -99 006 009 008
001 001 000 000 001 001 001 001 001 001 001 002 005 006 005 005 004 004 006 006 006 009 012 018 006 004 004 004 007 010 010
002 003 001 001 001 001 001 001 001 001 002 002 005 018 007 007 004 002 004 004 006 007 009 010 005 004 005 005 006 011 012
003 003 002 002 004 002 001 001 002 003 002 003 007 013 013 007 006 005 005 004 006 005 003 005 005 003 007 008 008 023 016
005 002 002 006 012 006 002 001 002 002 003 005 012 015 011 010 004 004 004 004 007 008 004 004 004 004 009 014 011 024 017
008 005 002 010 016 007 002 002 003 004 005 010 015 010 010 009 006 006 010 017 012 012 007 005 003 005 010 021 015 021 022
006 011 003 007 007 004 002 002 003 005 006 012 017 012 009 008 008 007 009 014 023 020 017 009 006 004 012 031 034 024 036
006 011 006 004 004 003 002 002 003 004 004 010 006 005 007 007 009 008 009 007 023 028 033 014 014 006 023 031 017 026 052
003 005 012 004 005 004 003 003 002 004 005 009 006 006 008 013 008 005 004 002 004 017 028 017 029 011 026 030 030 047 109
002 004 007 003 006 004 005 008 006 009 012 009 005 006 012 010 009 005 004 005 002 007 018 018 031 021 031 025 046 054 072
002 003 005 003 012 004 008 009 008 020 038 017 012 005 006 006 006 006 005 004 003 002 006 013 018 021 037 023 028 048 045
002 001 002 003 006 005 007 009 006 013 037 020 017 009 006 006 004 006 004 004 007 005 004 005 014 021 034 024 023 052 029
002 002 002 003 004 004 010 011 006 021 022 023 015 011 006 006 004 004 004 004 005 004 004 003 007 020 011 016 020 030 019
003 002 002 003 004 004 007 007 013 015 026 009 008 005 004 004 002 001 003 002 003 006 004 004 003 007 025 022 025 040 029
003 002 003 002 002 004 007 008 017 010 026 007 004 003 003 002 001 001 001 002 002 002 003 004 003 005 019 021 028 039 030
004 003 002 002 002 002 009 007 017 008 016 008 006 005 005 004 001 001 001 001 002 002 003 -99 005 009 017 017 013 017 020
003 002 001 003 003 002 006 007 017 011 012 013 011 006 006 003 001 001 001 001 001 002 002 -99 004 006 012 016 012 015 016
003 003 001 004 005 003 003 005 017 014 014 017 012 005 004 003 002 001 001 001 001 001 001 -99 003 005 007 014 015 011 013
003 004 001 003 003 003 005 010 008 011 011 011 005 003 003 002 002 002 001 001 000 001 000 -99 -99 -99 -99 015 019 008 013
004 002 002 001 002 003 003 006 007 007 008 010 005 004 002 002 002 002 001 001 000 000 000 -99 -99 -99 -99 -99 012 007 008
004 003 002 003 002 002 002 006 008 014 011 005 004 002 001 001 002 002 001 001 001 000 000 -99 -99 -99 -99 -99 012 006 005
004 003 002 002 001 001 001 005 011 033 046 013 007 002 002 002 002 001 001 000 001 000 000 -99 -99 -99 -99 -99 -99 003 003
004 002 003 002 001 001 001 002 006 041 069 038 006 003 004 003 002 001 001 001 002 000 -99 -99 -99 -99 -99 -99 -99 002 002
002 002 002 003 003 001 003 004 009 035 066 044 017 008 006 006 003 001 001 001 004 001 -99 -99 -99 002 002 -99 -99 -99 002
002 001 002 003 002 002 004 006 041 061 047 034 026 031 018 010 006 003 003 002 004 001 -99 000 001 002 002 -99 -99 -99 003
003 002 002 003 002 001 002 005 021 040 036 037 047 055 039 021 016 007 003 002 004 002 001 000 002 001 002 -99 000 001 003
003 003 003 002 002 001 001 005 010 026 058 062 069 077 078 066 026 011 005 003 005 003 001 001 002 001 003 001 000 002 006
004 004 002 001 002 001 001 002 008 050 082 077 096 083 111 098 047 021 009 012 004 003 004 003 002 002 006 004 002 003 006
006 005 002 002 002 002 002 003 010 064 088 085 092 077 069 058 035 015 016 014 006 020 015 007 003 003 006 006 002 004 005
009 008 003 002 003 002 004 008 029 083 123 062 080 053 040 055 028 013 022 012 004 019 016 016 011 010 009 004 002 004 005
008 007 007 004 006 015 010 013 025 039 080 068 048 050 040 031 011 008 012 006 005 008 011 009 012 012 010 004 001 001 001
003 006 006 003 009 033 015 021 035 029 045 025 016 025 029 029 014 008 004 002 004 006 002 003 008 007 009 002 001 001 001
002 003 004 002 013 026 013 020 013 017 031 023 023 016 014 018 017 011 002 001 003 001 000 001 002 006 003 002 001 001 000
001 001 002 002 012 013 013 007 006 009 013 015 022 013 006 010 012 010 004 001 002 000 000 000 002 002 002 001 002 002 000
002 001 001 001 004 007 011 004 007 007 010 019 020 018 002 006 005 008 006 008 001 000 000 000 000 000 001 001 002 003 000
003 001 000 001 002 003 002 002 003 005 012 019 011 016 001 002 002 003 005 007 006 001 000 001 000 000 000 000 000 000 000
000 000 000 001 001 001 001 000 001 002 006 009 011 005 005 002 001 001 004 005 003 001 004 001 000 000 000 000 000 000 000
001 000 000 001 001 001 001 000 001 001 003 004 008 006 005 002 000 002 001 005 004 002 010 004 000 001 000 -99 000 000 -99
000 001 001 001 001 001 001 000 001 002 002 004 004 005 005 002 000 000 001 002 004 003 013 001 001 003 000 -99 -99 -99 -99
001 001 001 001 000 001 001 000 000 001 001 002 004 005 004 001 000 000 000 001 002 003 005 002 005 000 000 000 -99 -99 -99
000 000 000 000 000 000 000 000 000 000 001 002 003 002 002 000 000 000 000 002 000 002 005 003 011 001 000 000 001 000 000
000 000 000 000 000 000 000 000 000 000 000 001 001 001 001 000 000 000 000 001 001 003 004 021 007 000 000 001 000 000 000
000 000 000 000 000 000 000 000 000 000 000 000 000 001 001 000 001 001 000 001 002 001 002 015 003 001 002 002 000 001 001
000 000 000 000 000 000 000 000 000 000 000 000 000 001 001 000 007 001 000 000 002 000 002 002 003 010 007 005 001 002 001
000 000 000 000 000 000 000 000 000 000 000 000 000 000 000 002 003 002 000 000 000 000 000 001 009 013 033 002 002 003 001
002 001 001 000 000 000 000 000 000 000 000 000 000 000 000 003 004 002 002 000 000 000 000 000 003 011 013 002 001 002 004
002 003 002 001 000 000 000 000 000 -99 000 000 000 000 001 001 007 003 002 000 000 000 -99 001 002 007 002 001 002 002 005
005 005 009 005 003 002 001 000 000 -99 -99 000 000 000 001 002 005 005 002 001 000 -99 -99 003 000 000 001 001 002 001 010
005 012 015 013 013 004 001 000 000 000 -99 000 000 000 000 001 003 006 002 001 000 -99 -99 005 001 001 -99 000 002 001 009
